23011
10028
6810
13885
3890
15785
4856
3372
6938
20966
4077
11638
5698
5162
3477
7011
9591
9539
8008
7361
10909
18300
7747
10794
10269
11175
3918
7539
3249
11909
5226
7612
3297
769
3072
9161
5257
19659
4805
19767
20241
5693
21222
5807
2671
10500
2190
10374
8996
2474
7051
23504
1336
8871
6460
11014
9452
0
3746
10548
5048
11508
10195
3330
10375
13837
6432
2765
7121
23071
2590
11587
14972
5644
7240
2459
18249
6796
18249
22399
8084
3269
5371
22551
5003
4009
2823
7822
5758
17586
7022
5201
4529
22820
9373
11217
28141
12651
3606
